c User generated cnf file
p cnf 15 27
3 3 -5 0 
-13 8 3 0 
15 -13 2 0 
-3 13 5 0 
-6 12 10 0 
-13 15 11 0 
-8 15 13 0 
-13 13 7 0 
-12 2 6 0 
3 -8 9 0 
5 6 -5 0 
11 1 -4 0 
4 -2 11 0 
6 7 -11 0 
2 15 -4 0 
-2 15 6 0 
15 -13 6 0 
10 3 -3 0 
-3 10 14 0 
-4 3 5 0 
12 5 -6 0 
-3 2 4 0 
9 -5 9 0 
-14 9 3 0 
10 -1 9 0 
5 -14 15 0 
7 -15 7 0 
